(set-logic BV) (define-fun origCir ((n273 Bool) (n313 Bool) (n216 Bool) (n192 Bool) (n322 Bool)) Bool (and (and (xor (xor n313 n273) (xor n216 n192)) (xor (and (xor n313 n273) (xor n216 n192)) (and (not n313) (not n273)))) n322)) (synth-fun skel ((n273 Bool) (n313 Bool) (n216 Bool) (n192 Bool) (n322 Bool)) Bool) (declare-var n273 Bool) (declare-var n313 Bool) (declare-var n216 Bool) (declare-var n192 Bool) (declare-var n322 Bool) (constraint (= (origCir n273 n313 n216 n192 n322) (skel n273 n313 n216 n192 n322))) (check-synth)
